code/4b82793008e34ee995bb41b690d7e901-pulp.mps
*SENSE:Maximize
NAME          MODEL
ROWS
 N  OBJ
 L  C0000000
 L  C0000001
 L  C0000002
COLUMNS
    X0000000  C0000001   1.000000000000e+00
    MARK      'MARKER'                 'INTORG'
    X0000001  C0000000   1.000000000000e+00
    X0000001  C0000002   1.000000000000e+00
    X0000001  OBJ        1.000000000000e+00
    MARK      'MARKER'                 'INTEND'
RHS
    RHS       C0000000   3.000000000000e+00
    RHS       C0000001   5.000000000000e+00
    RHS       C0000002   3.000000000000e+00
BOUNDS
 FX BND       X0000000   0.000000000000e+00
 LO BND       X0000001   0.000000000000e+00
ENDATA
