code/4b82793008e34ee995bb41b690d7e901-pulp.sol
Optimal - objective value 3.00000000
      0 C0000000               3                      -0
      1 C0000001               0                      -0
      2 C0000002               3                      -0
      0 X0000000               0                       0
      1 X0000001               3                       1
